100
1000
209
839
600
695
538
835
635
828
563
703
354
266
524
568
272
365
526
276
634
847
493
839
602
845
769
228
282
200
411
732
323
214
858
210
628
683
490
339
638
545
743
419
361
225
388
519
510
525
709
341
394
731
576
752
816
684
285
348
367
218
435
624
257
237
542
515
606
622
569
739
780
385
671
668
712
806
560
637
335
330
736
858
786
487
684
256
513
282
729
276
791
539
370
793
675
894
377
459
661
866
